1
2
6
7
10
11
15
103
21
22
29
30
31
32
28
23
20
19
24
27
26
25
18
16
17
9
8
3
12
33
36
37
42
43
46
52
53
58
57
54
51
47
44
41
104
40
45
48
50
55
56
59
105
62
63
70
74
75
81
69
73
76
80
79
77
72
68
67
71
78
82
83
84
85
86
89
90
99
98
93
92
91
96
97
101
102
64
49
39
38
35
34
14
13
5
4
60
61
65
66
87
88
94
95
100
1
